
<<< setup

Version identifier: 22.1.1.0 | 2022-11-27 | 9160aff4d
Tried aggregator 1 time.
LP Presolve eliminated 112 rows and 78 columns.
Reduced LP has 3 rows, 21 columns, and 21 nonzeros.
Presolve time = 0.00 sec. (0.05 ticks)

Iteration log . . .
Iteration:     1   Dual objective     =          1561.358482
main returns 0

<<< main


<<< done

